c Output_time 26.03.2020 18:15:33_+0100 1585242933930556264
c ** Program information **
c program_name                          "QBRG_debug"
c version                               "0.3.20"
c date                                  "25.3.2020"
c gid_id                                "673970833836058123f633335630c185360d632e"
c author                                "Oliver Kullmann"
c url                                   "https://github.com/OKullmann/oklibrary/blob/master/Satisfiability/Transformers/Generators/Random/QBRG.cpp"
c ** Machine information **
c machine_name                          "chyna-Lenovo-G50-70"
c bogomips                              3791.08
c ** Compilation information **
c compiler_version                      "g++ 7.5.0"
c compilation_date                      "Mar_26_2020 11:16:30"
c compilation_options                   "--std=c++17 -pedantic -fmax-errors=5 -Wall -Wextra -g -D_GLIBCXX_DEBUG"
c NDEBUG                                0
c OPTIMIZE                              0
c ** Parameters **
c command-line                          "./QBRG_debug" "a40 e40 a40 40" "636*1,1|2-2,1|3-3,1|4-4,1" "" "1,t" ""
c output                                "QuBlRaGe_160_636_1585242933930386295.qdimacs"
c options                               "filtered,renamed"
c num_quantifier_blocks                 4
c  quantifier_blocks                    1:a1-40 2:e41-80 3:a81-120 4:e121-160
c num_clause-blocks                     1
c  clause-blocks                        636 * {1-40,1,1/2} | {41-80,1,1/2} | {81-120,1,1/2} | {121-160,1,1/2}
c num_e-seeds                           37+2=39
c  e-seeds                              1 0 1 0 5 160 2 40 0 40 1 40 0 40 1 636 4 1 1 1 1 2 2 2 1 1 2 3 3 1 1 2 4 4 1 1 2 1 1585242933930385287
p cnf 160 636
a 1 2 3 4 5 6 7 8 9 10 11 12 13 14 15 16 17 18 19 20 21 22 23 24 25 26 27 28 29 30 31 32 33 34 35 36 37 38 39 40 0
e 41 42 43 44 45 46 47 48 49 50 51 52 53 54 55 56 57 58 59 60 61 62 63 64 65 66 67 68 69 70 71 72 73 74 75 76 77 78 79 80 0
a 81 82 83 84 85 86 87 88 89 90 91 92 93 94 95 96 97 98 99 100 101 102 103 104 105 106 107 108 109 110 111 112 113 114 115 116 117 118 119 120 0
e 121 122 123 124 125 126 127 128 129 130 131 132 133 134 135 136 137 138 139 140 141 142 143 144 145 146 147 148 149 150 151 152 153 154 155 156 157 158 159 160 0
16 -62 -94 -121 0
12 71 -94 -121 0
20 42 103 -121 0
-17 41 -113 -121 0
17 -77 -82 121 0
-9 -59 -95 121 0
-11 -80 105 121 0
15 50 -110 121 0
2 -42 118 121 0
16 -56 118 121 0
-20 -79 81 -122 0
-15 -45 82 -122 0
-34 47 -91 -122 0
18 77 93 -122 0
4 44 95 -122 0
38 64 -96 -122 0
-3 -80 97 -122 0
-6 67 -102 -122 0
-37 72 105 -122 0
7 75 117 -122 0
-35 -79 84 122 0
-32 74 86 122 0
19 -57 90 122 0
12 -68 -91 122 0
-18 -58 -98 122 0
5 -42 -102 122 0
-23 -76 -102 122 0
38 66 106 122 0
-28 73 -108 122 0
24 48 113 122 0
19 59 83 -123 0
4 56 -84 -123 0
25 48 99 -123 0
-8 72 99 -123 0
-18 75 104 -123 0
39 -75 -111 -123 0
-24 60 112 -123 0
-18 41 113 -123 0
-8 58 116 -123 0
30 -65 -84 123 0
40 63 -85 123 0
-10 -47 -88 123 0
-2 61 -94 123 0
-24 -61 -96 123 0
-8 -51 -100 123 0
-14 -57 100 123 0
8 -64 100 123 0
38 -72 -84 -124 0
25 68 -89 -124 0
-30 60 -97 -124 0
-4 50 102 -124 0
7 -45 109 -124 0
-2 -59 109 -124 0
39 -80 -110 -124 0
19 46 114 -124 0
-1 64 116 -124 0
-24 -78 -117 -124 0
9 -68 -82 124 0
-24 45 -86 124 0
-9 -51 94 124 0
-39 55 97 124 0
8 64 102 124 0
-22 76 -103 124 0
-28 42 105 124 0
31 -49 -106 124 0
-13 80 109 124 0
-23 -64 -111 124 0
-1 -51 116 124 0
-29 52 -85 -125 0
-3 -71 94 -125 0
15 57 -98 -125 0
-19 68 -109 -125 0
-33 -61 113 -125 0
-7 68 114 -125 0
-38 48 96 125 0
-1 77 -107 125 0
23 -71 109 125 0
-33 45 -110 125 0
-15 42 -111 125 0
-28 42 -112 125 0
8 -41 -115 125 0
-11 72 -115 125 0
13 75 -115 125 0
38 -78 -115 125 0
40 57 115 125 0
-35 -61 90 -126 0
-1 69 -92 -126 0
3 74 92 -126 0
-1 -49 102 -126 0
13 -44 112 -126 0
14 -58 115 -126 0
17 48 -98 126 0
12 42 98 126 0
-26 76 103 126 0
24 61 -105 126 0
30 -68 -108 126 0
-21 -66 108 126 0
-21 80 -110 126 0
-29 44 -114 126 0
-34 -57 -120 126 0
-21 -62 -82 -127 0
26 79 -90 -127 0
2 57 -94 -127 0
1 -61 -94 -127 0
16 78 -95 -127 0
-1 -58 106 -127 0
20 64 106 -127 0
3 51 -85 127 0
-2 41 -86 127 0
36 -76 -88 127 0
9 -78 89 127 0
-15 54 -94 127 0
-26 64 96 127 0
34 49 111 127 0
-36 -66 86 -128 0
-28 45 -93 -128 0
5 -46 94 -128 0
-31 66 100 -128 0
26 62 -89 128 0
-21 -78 -91 128 0
-27 61 93 128 0
-6 79 100 128 0
31 -48 -87 -129 0
-33 -73 -112 -129 0
-33 -56 83 129 0
7 -77 -90 129 0
-2 43 -97 129 0
-2 -42 -99 129 0
23 64 -99 129 0
18 52 102 129 0
-26 61 -106 129 0
6 -46 107 129 0
-16 67 -111 129 0
-26 68 81 -130 0
-38 56 83 -130 0
17 43 -89 -130 0
40 -68 101 -130 0
15 -46 106 -130 0
-11 -78 107 -130 0
-24 80 -108 -130 0
-15 75 111 -130 0
18 -76 113 -130 0
-6 -63 120 -130 0
-20 -61 86 130 0
-21 46 -94 130 0
-5 -41 -97 130 0
19 56 -109 130 0
-30 -55 110 130 0
-40 -68 113 130 0
33 74 113 130 0
26 -63 -114 130 0
33 60 120 130 0
-22 -45 86 -131 0
-21 -44 -99 -131 0
-20 -78 102 -131 0
8 63 104 -131 0
40 -69 104 -131 0
15 -70 105 -131 0
37 58 111 -131 0
-12 76 -112 -131 0
-20 74 -120 -131 0
9 -65 -89 131 0
-1 75 -90 131 0
3 69 92 131 0
38 52 -93 131 0
-17 -71 -95 131 0
-12 -77 -101 131 0
-13 54 -102 131 0
27 75 103 131 0
11 73 -105 131 0
-29 79 107 131 0
6 50 110 131 0
-6 42 -91 -132 0
36 -41 95 -132 0
29 -61 -99 -132 0
-4 77 108 -132 0
26 69 110 -132 0
37 65 119 -132 0
-34 52 -81 132 0
-13 74 -81 132 0
28 77 -86 132 0
12 61 -93 132 0
29 64 -96 132 0
22 -77 96 132 0
35 79 97 132 0
17 52 100 132 0
30 72 -115 132 0
32 46 81 -133 0
31 -80 -86 -133 0
-39 -44 -91 -133 0
2 -66 95 -133 0
28 -67 95 -133 0
33 74 95 -133 0
-30 -56 97 -133 0
12 70 101 -133 0
32 -53 -105 -133 0
14 53 107 -133 0
39 -41 112 -133 0
-3 -44 -116 -133 0
-25 -47 83 133 0
-3 60 86 133 0
6 63 -104 133 0
-39 42 -112 133 0
-28 -62 112 133 0
8 -77 119 133 0
33 -44 -82 -134 0
10 48 82 -134 0
-21 -75 84 -134 0
24 -71 -85 -134 0
-9 -58 -94 -134 0
35 77 94 -134 0
-31 56 -100 -134 0
-12 -46 102 -134 0
-20 -59 104 -134 0
2 -65 -81 134 0
40 50 86 134 0
-27 -46 93 134 0
-14 50 -120 134 0
-27 45 82 -135 0
-11 75 -96 -135 0
6 41 96 -135 0
19 -50 100 -135 0
11 52 -106 -135 0
-19 -69 120 -135 0
-31 43 88 135 0
4 56 102 135 0
40 56 106 135 0
-38 76 -108 135 0
-19 57 110 135 0
-25 50 112 135 0
24 -74 112 135 0
23 -54 -116 135 0
37 -78 118 135 0
35 44 -85 -136 0
-2 55 91 -136 0
28 -49 93 -136 0
-5 77 106 -136 0
-3 59 -113 -136 0
-18 -80 113 -136 0
-3 -73 118 -136 0
4 -42 82 136 0
22 58 84 136 0
22 59 -88 136 0
-5 56 -92 136 0
38 -74 -103 136 0
-17 -48 108 136 0
-23 -42 113 136 0
1 66 115 136 0
-13 61 117 136 0
26 -77 87 -137 0
14 -78 -89 -137 0
-16 53 99 -137 0
-37 44 -100 -137 0
12 71 107 -137 0
-7 76 -108 -137 0
-3 42 -111 -137 0
-30 -67 -116 -137 0
25 67 82 137 0
1 60 -91 137 0
-27 76 -94 137 0
20 51 -96 137 0
31 -76 -104 137 0
-37 42 105 137 0
1 -70 -107 137 0
-40 72 116 137 0
-11 -67 -118 137 0
9 -45 81 -138 0
38 66 103 -138 0
36 53 105 -138 0
-14 -55 106 -138 0
-22 64 107 -138 0
-40 -63 111 -138 0
26 56 113 -138 0
-8 41 -115 -138 0
-4 46 87 138 0
21 60 90 138 0
17 78 92 138 0
8 -54 96 138 0
21 74 96 138 0
-29 -64 -99 138 0
36 -50 -100 138 0
5 -69 -100 138 0
-35 61 -102 138 0
-12 45 106 138 0
-4 -42 -107 138 0
7 -74 -107 138 0
-1 52 108 138 0
-18 68 112 138 0
25 76 -117 138 0
19 -72 118 138 0
-12 80 -86 -139 0
-19 73 -87 -139 0
-13 78 -105 -139 0
-25 -67 116 -139 0
-19 65 118 -139 0
-30 -68 -82 139 0
32 -64 86 139 0
-28 -80 87 139 0
26 65 95 139 0
26 -80 97 139 0
-22 -74 -105 139 0
-32 68 112 139 0
-18 -72 -113 139 0
5 59 -114 139 0
22 49 117 139 0
24 -80 120 139 0
33 56 -81 -140 0
18 75 -83 -140 0
-31 -67 -84 -140 0
-15 78 86 -140 0
-28 -59 -87 -140 0
40 -72 88 -140 0
12 75 95 -140 0
-27 52 98 -140 0
4 -55 104 -140 0
-7 -78 104 -140 0
32 -65 -111 -140 0
-31 62 -117 -140 0
31 -49 118 -140 0
-17 79 -100 140 0
39 52 -118 140 0
-15 42 83 -141 0
-5 63 85 -141 0
-15 -59 -93 -141 0
-3 -57 -97 -141 0
35 52 105 -141 0
2 58 88 141 0
-17 75 99 141 0
17 -53 -101 141 0
-16 -78 -111 141 0
12 -47 -115 141 0
31 71 119 141 0
28 69 84 -142 0
35 -47 87 -142 0
4 -77 89 -142 0
-15 -78 92 -142 0
15 -63 -97 -142 0
-1 -55 97 -142 0
-16 -56 106 -142 0
31 -43 -117 -142 0
-13 -72 -81 142 0
27 -72 -82 142 0
-2 -50 -88 142 0
32 -77 -88 142 0
28 45 91 142 0
-12 71 -102 142 0
33 -52 -105 142 0
3 72 85 -143 0
38 -60 -94 -143 0
7 -74 -101 -143 0
-14 46 -111 -143 0
10 61 117 -143 0
-25 55 83 143 0
-33 -73 83 143 0
-18 -80 84 143 0
-4 -65 -107 143 0
39 62 -112 143 0
-9 -68 120 143 0
26 42 82 -144 0
-6 -56 86 -144 0
6 63 -92 -144 0
-21 -68 -95 -144 0
-25 80 -119 -144 0
-28 -67 -94 144 0
-3 75 -100 144 0
-4 -59 -109 144 0
-21 60 109 144 0
-35 78 111 144 0
-13 60 -118 144 0
2 -61 94 -145 0
40 -47 -101 -145 0
16 -49 101 -145 0
-12 79 -105 -145 0
14 -68 109 -145 0
33 78 113 -145 0
24 42 -115 -145 0
-34 -74 -118 -145 0
-33 -67 -81 145 0
21 64 97 145 0
-1 63 -105 145 0
17 -42 -113 145 0
-27 -61 -114 145 0
25 57 -116 145 0
10 72 118 145 0
5 77 -120 145 0
-20 56 120 145 0
16 -77 82 -146 0
20 -80 -90 -146 0
-35 -69 -100 -146 0
-30 61 102 -146 0
-32 73 -103 -146 0
20 78 -104 -146 0
36 -61 -110 -146 0
12 62 -110 -146 0
-5 -76 110 -146 0
17 -58 112 -146 0
27 -49 118 -146 0
28 -73 -87 146 0
34 -67 -113 146 0
-23 -63 -89 -147 0
10 45 96 -147 0
-17 46 98 -147 0
9 -41 100 -147 0
8 44 100 -147 0
-26 78 101 -147 0
7 -43 -108 -147 0
14 77 108 -147 0
1 70 -112 -147 0
-14 -60 114 -147 0
-12 -73 115 -147 0
40 47 -86 147 0
-12 -56 -86 147 0
-3 75 -95 147 0
12 66 102 147 0
-28 64 -109 147 0
16 42 -119 147 0
2 -55 86 -148 0
-38 65 89 -148 0
4 66 -91 -148 0
-25 70 -95 -148 0
-15 -70 95 -148 0
-31 75 95 -148 0
-8 72 115 -148 0
15 58 -119 -148 0
24 -55 -83 148 0
33 -70 -86 148 0
4 -74 -90 148 0
24 -78 -96 148 0
-40 -51 -99 148 0
-14 43 -103 148 0
17 48 -106 148 0
-12 61 -107 148 0
40 -64 -111 148 0
-16 -64 -113 148 0
-35 -71 118 148 0
37 -71 -120 148 0
34 79 81 -149 0
-26 74 -85 -149 0
3 74 86 -149 0
-1 -53 -99 -149 0
3 -55 -110 -149 0
-11 55 86 149 0
-38 59 -93 149 0
7 -61 93 149 0
39 -66 -96 149 0
-36 -75 100 149 0
-19 64 -103 149 0
-28 -53 105 149 0
11 49 106 149 0
-37 78 -113 149 0
-33 75 -114 149 0
-10 71 -82 -150 0
12 41 89 -150 0
-1 -73 -92 -150 0
39 46 -99 -150 0
11 -80 -99 -150 0
-13 -78 99 -150 0
-34 65 -102 -150 0
-19 -60 110 -150 0
-12 -75 -114 -150 0
-14 -74 115 -150 0
33 -51 120 -150 0
-14 -50 -86 150 0
34 58 -90 150 0
22 -75 91 150 0
-13 -61 94 150 0
-12 75 94 150 0
-32 -49 -95 150 0
19 41 103 150 0
16 42 103 150 0
-24 -73 105 150 0
33 46 114 150 0
-4 65 116 150 0
30 73 -90 -151 0
31 -72 94 -151 0
8 74 94 -151 0
40 67 -100 -151 0
-26 64 -104 -151 0
-10 -70 104 -151 0
35 79 114 -151 0
-6 -58 115 -151 0
1 69 -116 -151 0
-17 54 83 151 0
30 -75 -100 151 0
32 58 114 151 0
27 -43 115 151 0
-11 50 116 151 0
27 -44 82 -152 0
-37 -53 95 -152 0
32 69 96 -152 0
-32 76 104 -152 0
28 60 106 -152 0
-32 63 108 -152 0
-38 74 109 -152 0
23 42 120 -152 0
2 49 90 152 0
-23 -61 -92 152 0
-28 -72 -94 152 0
-2 -76 -101 152 0
-33 76 106 152 0
9 65 112 152 0
-15 71 112 152 0
-4 -76 113 152 0
36 -60 -82 -153 0
19 79 88 -153 0
-1 68 -97 -153 0
-25 55 98 -153 0
-20 76 99 -153 0
13 -72 110 -153 0
-39 -45 113 -153 0
17 49 114 -153 0
-25 70 118 -153 0
-2 63 -87 153 0
-29 67 89 153 0
40 -46 97 153 0
34 -62 -103 153 0
8 -48 94 -154 0
-27 -66 -95 -154 0
38 -80 102 -154 0
2 78 -106 -154 0
12 -67 113 -154 0
-25 78 -115 -154 0
2 64 116 -154 0
-10 -64 -91 154 0
16 43 -93 154 0
18 -48 96 154 0
-4 43 -113 154 0
-20 80 -116 154 0
15 -66 91 -155 0
-1 47 92 -155 0
30 -47 -95 -155 0
-40 -58 97 -155 0
21 -79 99 -155 0
-37 77 100 -155 0
-4 -78 -115 -155 0
-11 59 -116 -155 0
-24 -78 -81 155 0
-13 69 86 155 0
22 -76 86 155 0
-4 44 88 155 0
-8 43 -90 155 0
-34 42 -102 155 0
21 76 -104 155 0
38 -41 -105 155 0
-32 80 106 155 0
36 67 -107 155 0
-30 49 108 155 0
34 55 117 155 0
-36 65 117 155 0
24 -45 119 155 0
31 -51 82 -156 0
33 -76 86 -156 0
28 57 -89 -156 0
-28 57 99 -156 0
-36 72 -101 -156 0
23 72 110 -156 0
-27 -43 -111 -156 0
-20 60 -115 -156 0
22 -64 -82 156 0
33 -44 97 156 0
-20 -64 108 156 0
-37 -51 115 156 0
-33 51 -118 156 0
-16 53 -119 156 0
27 63 -120 156 0
12 74 -85 -157 0
-25 51 98 -157 0
4 -47 -99 -157 0
22 54 99 -157 0
40 -79 99 -157 0
-37 64 -106 -157 0
24 -79 -113 -157 0
-40 52 116 -157 0
-30 64 -84 157 0
-13 41 -98 157 0
-18 -51 100 157 0
3 -63 104 157 0
-29 -75 104 157 0
-4 48 106 157 0
26 68 106 157 0
13 -51 -119 157 0
-35 -46 83 -158 0
-8 42 88 -158 0
-32 63 91 -158 0
38 67 -92 -158 0
25 59 -93 -158 0
-27 -42 94 -158 0
21 -73 -97 -158 0
7 -50 97 -158 0
-12 50 98 -158 0
-33 63 -108 -158 0
23 68 109 -158 0
20 56 110 -158 0
-4 -50 113 -158 0
37 -54 117 -158 0
-23 -77 -91 158 0
33 -48 92 158 0
18 -55 103 158 0
28 -65 104 158 0
-40 -73 -108 158 0
22 -58 108 158 0
30 68 115 158 0
-31 76 -118 158 0
-3 72 81 -159 0
-3 -72 92 -159 0
36 -58 -94 -159 0
38 59 -94 -159 0
-36 -71 94 -159 0
16 -44 -113 -159 0
3 44 120 -159 0
5 -45 -82 159 0
-40 -56 -91 159 0
-20 54 91 159 0
-18 -43 -96 159 0
-35 -78 -97 159 0
2 -45 -98 159 0
-16 66 98 159 0
37 -78 -102 159 0
5 59 104 159 0
17 53 105 159 0
-13 -48 106 159 0
-36 -80 106 159 0
28 -58 86 -160 0
-24 -46 87 -160 0
22 -75 -93 -160 0
-4 73 -99 -160 0
9 -78 -101 -160 0
19 -63 103 -160 0
5 -42 -106 -160 0
-37 -49 112 -160 0
26 51 85 160 0
-19 60 -91 160 0
-29 -64 99 160 0
32 -76 -109 160 0
-26 -54 111 160 0
7 -76 120 160 0
